NAME : XML100_1242_15
DIMENSION : 101
NB_CLUSTERS : 7
CLUSTERING_ALG : KMedoids
CLUSTERING_PARAMS : k(6)
CLUSTERS
1 0
2 2 3 6 18 20 24 30 31 37 39 46 63 65 72 73 91 99
3 1 7 26 50 51 58 98 100
4 13 19 28 29 33 40 41 55 56 64 67 68 69 70 74 76 79 82 85 86 97
5 4 10 11 27 34 35 38 44 47 48 57 62 78 81 83 84 87 88 90 96
6 8 14 17 21 23 25 32 36 42 52 53 54 59 60 77 94
7 5 9 12 15 16 22 43 45 49 61 66 71 75 80 89 92 93 95
EOF